 ! --------------------------------------------------- CP Optimizer 22.1.1.0 --
 ! Satisfiability problem - 60625 variables, 745425 constraints
 ! Presolve      : 37500 extractables eliminated
 ! TimeLimit            = 3600
 ! Workers              = 1
 ! Initial process time : 6.62s (6.60s extraction + 0.02s propagation)
 !  . Log search space  : 626877.2 (before), 626877.2 (after)
 !  . Memory usage      : 460.0 MB (before), 460.0 MB (after)
 ! Using sequential search.
 ! ----------------------------------------------------------------------------
 !               Branches  Non-fixed            Branch decision
                     1099      59850        F          presenceOf(copy_bus_parking:7_0)
                     2282      58547        F          presenceOf(copy_trips:20_0)
                     3000      57174                   presenceOf(copy_lane_parking:3_78)
                     4000      39209                   presenceOf(copy_bus_parking:48_230)
                     5000      26489                   presenceOf(copy_lane_parking:4_32)
                     6000      25558                   presenceOf(copy_lane_parking:5_205)
                     7000      20706            245 != endOf(start_parking:36)
                     8000      54808                   presenceOf(copy_lane_parking:7_41)
                     9000      20700                   presenceOf(copy_lane_parking:0_71)
                    10000      38587                   presenceOf(copy_lane_parking:5_126)
                    11000      36891                   presenceOf(copy_lane_parking:5_294)
                    12000      38605                   presenceOf(copy_lane_parking:4_260)
                    13000      25743                  !presenceOf(copy_trips:8_39)
                    14000      20545                  !presenceOf(copy_trips:29_373)
                    15000      20548                   presenceOf(copy_lane_parking:5_54)
                    16000      20543        F          presenceOf(copy_bus_parking:35_373)
                    17000      20543                   presenceOf(copy_lane_parking:8_248)
                    18000      41772                  !presenceOf(copy_bus_parking:29_33)
                    19000      38587        F          presenceOf(copy_trips:29_373)
                    20000      38587                  !presenceOf(copy_trips:14_370)
 ! Time = 46.44s, Average fail depth = 473, Memory usage = 1.7 GB
 !               Branches  Non-fixed            Branch decision
                    21000      38584                  !presenceOf(copy_trips:20_370)
                    22000      38593                   presenceOf(copy_lane_parking:4_238)
                    23000      20706                  !presenceOf(copy_trips:13_251)
                    24000      20706        F          presenceOf(copy_trips:35_370)
                    25000      37420                   presenceOf(copy_lane_parking:6_108)
                    26000      26257                   presenceOf(copy_lane_parking:3_251)
                    27000      20697                  !presenceOf(copy_bus_parking:22_253)
                    28000      20697        F          presenceOf(copy_bus_parking:38_251)
                    29000      20694                   presenceOf(copy_lane_parking:2_223)
                    30000      20712                   presenceOf(copy_lane_parking:5_101)
                    31000      38578                   presenceOf(copy_lane_parking:8_197)
                    32000      42419                   presenceOf(copy_bus_parking:13_103)
                    33000      41718                   presenceOf(copy_lane_parking:4_193)
                    34000      43761                   presenceOf(copy_lane_parking:1_90)
                    35000      38596                  !presenceOf(copy_bus_parking:4_373)
                    36000      32808                   presenceOf(copy_lane_parking:7_39)
                    37000      25439        F          presenceOf(copy_trips:44_41)
                    38000      25897        F          presenceOf(copy_bus_parking:40_30)
                    39000      42148                  !presenceOf(copy_bus_parking:6_13)
                    40000      40885        F          presenceOf(copy_bus_parking:49_32)
 ! Time = 85.05s, Average fail depth = 495, Memory usage = 1.7 GB
 !               Branches  Non-fixed            Branch decision
                    41000      41113                  !presenceOf(copy_trips:11_0)
                    42000      40498                  !presenceOf(copy_bus_parking:25_13)
                    43000      41121                  !presenceOf(copy_trips:32_0)
                    44000      55549        F          presenceOf(copy_trips:9_0)
                    45000      55549        F         !presenceOf(copy_trips:11_0)
                    46000      55549                   presenceOf(copy_lane_parking:4_18)
                    47000      38593                  !presenceOf(copy_bus_parking:47_370)
                    48000      38590                  !presenceOf(copy_bus_parking:9_370)
                    49000      38587        F          presenceOf(copy_trips:23_373)
                    50000      38590                  !presenceOf(copy_bus_parking:7_370)
                    51000      38587                  !presenceOf(copy_bus_parking:10_370)
                    52000      38593        F          presenceOf(copy_bus_parking:49_369)
                    53000      38590                  !presenceOf(copy_bus_parking:18_370)
                    54000      38587                  !presenceOf(copy_bus_parking:41_370)
                    55000      38587                  !presenceOf(copy_bus_parking:49_370)
                    56000      38587                  !presenceOf(copy_bus_parking:17_370)
                    57000      38599                  !presenceOf(copy_bus_parking:39_370)
                    58000      38596                  !presenceOf(copy_bus_parking:29_370)
                    59000      38596                  !presenceOf(copy_bus_parking:6_370)
                    60000      38596        F          presenceOf(copy_trips:8_370)
 ! Time = 115.31s, Average fail depth = 483, Memory usage = 1.7 GB
 !               Branches  Non-fixed            Branch decision
                    61000      38596                   presenceOf(copy_lane_parking:6_365)
                    62000      54281                   presenceOf(copy_lane_parking:3_315)
                    63000      38602                   presenceOf(copy_bus_parking:25_73)
                    64000      41806                   presenceOf(copy_bus_parking:9_1)
                    65000      40792        F          presenceOf(copy_bus_parking:4_13)
                    66000      25900                  !presenceOf(copy_bus_parking:14_39)
                    67000      25900        F          presenceOf(copy_bus_parking:29_41)
                    68000      25900        F          presenceOf(copy_trips:8_47)
                    69000      25900                   presenceOf(copy_lane_parking:7_206)
                    70000      41874                   presenceOf(copy_lane_parking:1_121)
                    71000      38605                   presenceOf(copy_lane_parking:2_312)
                    72000      26245        F          presenceOf(copy_trips:4_39)
                    73000      26483            245 != endOf(start_parking:39)
                    74000      58190                   presenceOf(copy_lane_parking:1_22)
                    75000      38602        F          presenceOf(copy_trips:15_369)
                    76000      20693        F          presenceOf(copy_trips:41_251)
                    77000      20693                  !presenceOf(copy_trips:14_370)
                    78000      38596        F          presenceOf(copy_trips:39_373)
                    79000      38608                   presenceOf(copy_trips:30_1)
                    80000      38593        F          presenceOf(copy_trips:41_370)
 ! Time = 157.55s, Average fail depth = 472, Memory usage = 1.7 GB
 !               Branches  Non-fixed            Branch decision
                    81000      38587        F          presenceOf(copy_trips:22_32)
                    82000      25787        F          presenceOf(copy_bus_parking:21_41)
                    83000      25576                   presenceOf(copy_bus_parking:27_265)
                    84000      38590                   presenceOf(copy_lane_parking:1_13)
                    85000      26251        F          presenceOf(copy_bus_parking:15_39)
                    86000      26251                  !presenceOf(copy_trips:0_47)
                    87000      26251        F          presenceOf(copy_bus_parking:30_39)
                    88000      26251                   presenceOf(copy_lane_parking:3_226)
                    89000      20703                   presenceOf(copy_lane_parking:5_220)
                    90000      38753                  !presenceOf(copy_bus_parking:4_370)
                    91000      38614                  !presenceOf(copy_bus_parking:24_370)
                    92000      38614                  !presenceOf(copy_bus_parking:18_370)
                    93000      38614                  !presenceOf(copy_bus_parking:9_370)
                    94000      38608                  !presenceOf(copy_bus_parking:45_369)
                    95000      38608                   presenceOf(copy_trips:9_330)
                    96000      38587        F          presenceOf(copy_trips:36_370)
                    97000      38602        F          presenceOf(copy_trips:31_370)
                    98000      38596                  !presenceOf(copy_bus_parking:6_367)
                    99000      38599        F          presenceOf(copy_trips:20_370)
                     100k      38599                  !presenceOf(copy_bus_parking:12_5)
 ! Time = 194.12s, Average fail depth = 480, Memory usage = 1.7 GB
 !               Branches  Non-fixed            Branch decision
                     101k      28387                   presenceOf(copy_bus_parking:0_121)
                     102k      26266                  !presenceOf(copy_trips:48_47)
                     103k      26266                  !presenceOf(copy_trips:29_47)
                     104k      26266        F          presenceOf(copy_trips:36_39)
                     105k      26266                  !presenceOf(copy_trips:29_47)
                     106k      26266                  !presenceOf(copy_trips:15_47)
                     107k      26266                  !presenceOf(copy_trips:15_47)
                     108k      26266        F          presenceOf(copy_trips:29_39)
                     109k      26266                  !presenceOf(copy_trips:27_47)
                     110k      26266                  !presenceOf(copy_trips:9_47)
                     111k      26266                  !presenceOf(copy_trips:15_47)
                     112k      26266                  !presenceOf(copy_trips:9_47)
                     113k      26266        F          presenceOf(copy_trips:34_39)
                     114k      26266                   presenceOf(copy_lane_parking:4_362)
                     115k      54568                   presenceOf(copy_lane_parking:7_204)
                     116k      41358                   presenceOf(copy_lane_parking:5_5)
                     117k      25512                   presenceOf(copy_lane_parking:5_219)
                     118k      20698                  !presenceOf(copy_bus_parking:27_251)
                     119k      20698                  !presenceOf(copy_trips:33_275)
                     120k      20392                  !presenceOf(copy_bus_parking:33_367)
 ! Time = 227.61s, Average fail depth = 498, Memory usage = 1.7 GB
 !               Branches  Non-fixed            Branch decision
                     121k      20392                  !presenceOf(copy_bus_parking:38_2)
                     122k      24335        F          presenceOf(copy_bus_parking:30_22)
                     123k      23815                  !presenceOf(copy_trips:34_60)
                     124k      25650                   presenceOf(copy_bus_parking:22_219)
                     125k      20697                   presenceOf(copy_bus_parking:16_198)
                     126k      37633                  !presenceOf(copy_bus_parking:17_370)
                     127k      38602                  !presenceOf(copy_bus_parking:5_370)
                     128k      38596                  !presenceOf(copy_bus_parking:44_370)
                     129k      38599                  !presenceOf(copy_bus_parking:34_370)
                     130k      38596                   presenceOf(copy_trips:27_367)
                     131k      38599                  !presenceOf(copy_trips:10_1)
                     132k      54462        F         !presenceOf(copy_trips:23_1)
                     133k      54462        F         !presenceOf(copy_trips:19_1)
                     134k      54462                  !presenceOf(copy_trips:10_1)
                     135k      54462                  !presenceOf(copy_trips:11_1)
                     136k      54462                   presenceOf(copy_bus_parking:21_3)
                     137k      54462                   presenceOf(copy_bus_parking:10_3)
                     138k      54462                  !presenceOf(copy_trips:10_1)
                     139k      54462                   presenceOf(copy_bus_parking:36_3)
                     140k      54462        F         !presenceOf(copy_trips:2_1)
 ! Time = 256.66s, Average fail depth = 489, Memory usage = 1.7 GB
 !               Branches  Non-fixed            Branch decision
                     141k      54462                   presenceOf(copy_bus_parking:5_3)
                     142k      54462        F         !presenceOf(copy_trips:2_1)
                     143k      54462                  !presenceOf(copy_trips:10_1)
                     144k      45610                   presenceOf(copy_trips:43_63)
                     145k      38602                  !presenceOf(copy_bus_parking:18_369)
                     146k      33692        F         !presenceOf(copy_trips:0_0)
                     147k      31529                   presenceOf(copy_bus_parking:19_46)
                     148k      40833                  !presenceOf(copy_bus_parking:16_2)
                     149k      52281                   presenceOf(copy_trips:19_52)
                     150k      42390                   presenceOf(copy_lane_parking:4_179)
                     151k      36685                  !presenceOf(copy_bus_parking:34_3)
                     152k      36685                  !presenceOf(copy_bus_parking:42_3)
                     153k      36685        F         !presenceOf(copy_bus_parking:2_4)
                     154k      36685                   presenceOf(copy_bus_parking:40_78)
                     155k      40324                  !presenceOf(copy_trips:13_13)
                     156k      40477                  !presenceOf(copy_trips:13_13)
                     157k      42574        F          presenceOf(copy_trips:35_37)
                     158k      42528        F          presenceOf(copy_trips:40_37)
                     159k      40350                  !presenceOf(copy_trips:48_13)
                     160k      40288                  !presenceOf(copy_trips:16_13)
 ! Time = 296.72s, Average fail depth = 482, Memory usage = 1.7 GB
 !               Branches  Non-fixed            Branch decision
                     161k      40818        F          presenceOf(copy_trips:2_37)
                     162k      40965                  !presenceOf(copy_trips:44_13)
                     163k      41175                  !presenceOf(copy_trips:31_13)
                     164k      39951                  !presenceOf(copy_trips:32_13)
                     165k      40104                  !presenceOf(copy_trips:42_13)
                     166k      40320                  !presenceOf(copy_trips:24_13)
                     167k      40128                   presenceOf(copy_lane_parking:7_42)
                     168k      42089        F          presenceOf(copy_bus_parking:21_13)
                     169k      42089                  !presenceOf(copy_trips:26_57)
                     170k      42086                  !presenceOf(copy_trips:29_57)
                     171k      42086        F          presenceOf(copy_bus_parking:41_13)
                     172k      42089        F          presenceOf(copy_bus_parking:12_13)
                     173k      42089                  !presenceOf(copy_bus_parking:14_13)
                     174k      42086        F         !presenceOf(copy_trips:17_57)
                     175k      42086        F          presenceOf(copy_bus_parking:33_13)
                     176k      42092                  !presenceOf(copy_bus_parking:11_13)
                     177k      42089        F          presenceOf(copy_trips:27_38)
                     178k      42089        F          presenceOf(copy_bus_parking:13_13)
                     179k      42089        F          presenceOf(copy_bus_parking:48_13)
                     180k      42092        F          presenceOf(copy_bus_parking:17_13)
 ! Time = 339.33s, Average fail depth = 481, Memory usage = 1.7 GB
 !               Branches  Non-fixed            Branch decision
                     181k      42092        F          presenceOf(copy_bus_parking:32_13)
                     182k      42089        F         !presenceOf(copy_bus_parking:40_13)
                     183k      42089        F          presenceOf(copy_bus_parking:13_13)
                     184k      42089        F          presenceOf(copy_bus_parking:3_13)
                     185k      42209        F          presenceOf(copy_bus_parking:4_13)
                     186k      42094                  !presenceOf(copy_bus_parking:36_13)
                     187k      42157        F          presenceOf(copy_bus_parking:33_13)
                     188k      42157        F          presenceOf(copy_bus_parking:2_13)
                     189k      42190        F          presenceOf(copy_bus_parking:12_13)
                     190k      42166        F          presenceOf(copy_bus_parking:5_13)
                     191k      42089        F          presenceOf(copy_bus_parking:2_13)
                     192k      42086        F          presenceOf(copy_bus_parking:33_13)
                     193k      42086        F          presenceOf(copy_bus_parking:48_13)
                     194k      42122        F          presenceOf(copy_bus_parking:20_13)
                     195k      42122                  !presenceOf(copy_bus_parking:30_13)
                     196k      42122                  !presenceOf(copy_trips:32_30)
                     197k      42231        F          presenceOf(copy_bus_parking:42_13)
                     198k      42169        F          presenceOf(copy_bus_parking:43_13)
                     199k      42089        F          presenceOf(copy_bus_parking:9_13)
                     200k      42092                  !presenceOf(copy_bus_parking:13_13)
 ! Time = 376.77s, Average fail depth = 480, Memory usage = 1.7 GB
 !               Branches  Non-fixed            Branch decision
                     201k      42089        F          presenceOf(copy_bus_parking:28_13)
                     202k      42089                  !presenceOf(copy_bus_parking:9_13)
                     203k      42089        F          presenceOf(copy_bus_parking:31_13)
                     204k      42089        F          presenceOf(copy_bus_parking:29_13)
                     205k      42094        F          presenceOf(copy_bus_parking:42_13)
                     206k      42089        F          presenceOf(copy_bus_parking:12_13)
                     207k      42086                  !presenceOf(copy_bus_parking:33_13)
                     208k      42086        F          presenceOf(copy_bus_parking:24_13)
                     209k      42089                  !presenceOf(copy_bus_parking:29_13)
                     210k      42086                  !presenceOf(copy_bus_parking:15_13)
                     211k      42089                  !presenceOf(copy_bus_parking:43_13)
                     212k      42089                  !presenceOf(copy_bus_parking:21_13)
                     213k      42086                  !presenceOf(copy_bus_parking:12_13)
                     214k      42089                   presenceOf(copy_trips:34_57)
                     215k      42086                  !presenceOf(copy_bus_parking:31_13)
                     216k      42086                  !presenceOf(copy_bus_parking:16_13)
                     217k      42089                  !presenceOf(copy_bus_parking:39_13)
                     218k      42089                  !presenceOf(copy_bus_parking:31_13)
                     219k      39052                  !presenceOf(copy_bus_parking:16_367)
                     220k      38596                  !presenceOf(copy_bus_parking:17_370)
 ! Time = 412.65s, Average fail depth = 479, Memory usage = 1.7 GB
 !               Branches  Non-fixed            Branch decision
                     221k      38593                  !presenceOf(copy_bus_parking:22_370)
                     222k      38587                  !presenceOf(copy_bus_parking:14_370)
                     223k      38596                   presenceOf(copy_trips:38_37)
                     224k      38614            245  = endOf(start_parking:26)
                     225k      20706                  !presenceOf(copy_trips:15_275)
                     226k      20528                  !presenceOf(copy_trips:6_64)
                     227k      42936                  !presenceOf(copy_bus_parking:2_13)
                     228k      41057        F          presenceOf(copy_bus_parking:21_32)
                     229k      42023        F          presenceOf(copy_trips:33_21)
                     230k      41494        F          presenceOf(copy_bus_parking:18_0)
                     231k      41258                   presenceOf(copy_bus_parking:40_351)
                     232k      38596                   presenceOf(copy_lane_parking:3_40)
                     233k      20547                   presenceOf(copy_lane_parking:5_198)
                     234k      26275                   presenceOf(copy_lane_parking:5_16)
                     235k      38593                   presenceOf(copy_lane_parking:5_294)
                     236k      38611                  !presenceOf(copy_trips:46_370)
                     237k      38599                   presenceOf(copy_bus_parking:11_367)
                     238k      38599        F          presenceOf(copy_trips:1_16)
                     239k      26474                  !presenceOf(copy_trips:29_39)
                     240k      26474                  !presenceOf(copy_trips:17_369)
 ! Time = 452.51s, Average fail depth = 477, Memory usage = 1.7 GB
 !               Branches  Non-fixed            Branch decision
                     241k      38584        F          presenceOf(copy_trips:29_369)
                     242k      38584        F         !presenceOf(copy_trips:36_370)
                     243k      38584        F          presenceOf(copy_trips:32_369)
                     244k      38584                  !presenceOf(copy_trips:8_369)
                     245k      38584        F         !presenceOf(copy_trips:36_370)
                     246k      38587        F          presenceOf(copy_trips:7_369)
                     247k      38587        F          presenceOf(copy_trips:48_369)
                     248k      38587        F          presenceOf(copy_trips:37_369)
                     249k      38587        F          presenceOf(copy_trips:35_369)
                     250k      38596                  !presenceOf(copy_trips:4_373)
                     251k      38593        F          presenceOf(copy_trips:7_369)
                     252k      38584        F          presenceOf(copy_trips:13_369)
                     253k      38584        F         !presenceOf(copy_trips:36_370)
                     254k      38587                  !presenceOf(copy_trips:24_370)
                     255k      20066                  !presenceOf(copy_bus_parking:18_373)
                     256k      20066        F          presenceOf(copy_trips:27_370)
                     257k      38596        F          presenceOf(copy_trips:2_55)
                     258k      38599        F          presenceOf(copy_trips:18_370)
                     259k      38602                   presenceOf(copy_lane_parking:7_49)
                     260k      54924                  !presenceOf(copy_trips:7_6)
 ! Time = 481.82s, Average fail depth = 477, Memory usage = 1.7 GB
 !               Branches  Non-fixed            Branch decision
                     261k      54940        F          presenceOf(copy_trips:5_4)
                     262k      54924        F          presenceOf(copy_bus_parking:43_0)
                     263k      38599                   presenceOf(copy_trips:16_370)
                     264k      38596        F          presenceOf(copy_trips:30_370)
                     265k      38596                   presenceOf(copy_trips:19_370)
                     266k      38602        F          presenceOf(copy_trips:39_370)
                     267k      38596        F          presenceOf(copy_trips:32_370)
                     268k      38596                   presenceOf(copy_trips:20_370)
                     269k      38593        F         !presenceOf(copy_bus_parking:3_369)
                     270k      38593        F          presenceOf(copy_trips:3_370)
                     271k      38593        F          presenceOf(copy_trips:22_370)
                     272k      38599        F          presenceOf(copy_trips:29_370)
                     273k      38596        F          presenceOf(copy_trips:1_370)
                     274k      38596        F          presenceOf(copy_trips:9_370)
                     275k      38593        F          presenceOf(copy_trips:46_370)
                     276k      38593                   presenceOf(copy_lane_parking:6_4)
                     277k      20700                  !presenceOf(copy_trips:5_251)
                     278k      20700        F          presenceOf(copy_bus_parking:8_3)
                     279k      54982        F          presenceOf(copy_bus_parking:4_3)
                     280k      54982        F          presenceOf(copy_bus_parking:4_3)
 ! Time = 511.53s, Average fail depth = 477, Memory usage = 1.7 GB
 !               Branches  Non-fixed            Branch decision
                     281k      54982        F          presenceOf(copy_bus_parking:4_3)
                     282k      54982        F          presenceOf(copy_bus_parking:4_3)
                     283k      54982        F          presenceOf(copy_bus_parking:11_3)
                     284k      54982        F          presenceOf(copy_bus_parking:36_3)
                     285k      54982        F          presenceOf(copy_bus_parking:36_3)
                     286k      54561                  !presenceOf(copy_bus_parking:13_4)
                     287k      54379        F         !presenceOf(copy_bus_parking:4_3)
                     288k      54373                  !presenceOf(copy_bus_parking:36_3)
                     289k      54367                  !presenceOf(copy_bus_parking:8_3)
                     290k      54373        F          presenceOf(copy_bus_parking:24_4)
                     291k      54385        F          presenceOf(copy_bus_parking:4_3)
                     292k      54367        F          presenceOf(copy_bus_parking:3_4)
                     293k      54379        F         !presenceOf(copy_bus_parking:4_3)
                     294k      54373                  !presenceOf(copy_bus_parking:8_3)
                     295k      54367                  !presenceOf(copy_trips:5_9)
                     296k      54379        F         !presenceOf(copy_bus_parking:4_3)
                     297k      54373        F          presenceOf(copy_bus_parking:4_3)
                     298k      54373                   presenceOf(copy_bus_parking:19_4)
                     299k      54367        F          presenceOf(copy_bus_parking:8_3)
                     300k      54374                  !presenceOf(copy_bus_parking:36_3)
 ! Time = 545.69s, Average fail depth = 470, Memory usage = 1.7 GB
 !               Branches  Non-fixed            Branch decision
                     301k      54374                   presenceOf(copy_bus_parking:10_4)
                     302k      54368                  !presenceOf(copy_bus_parking:45_4)
                     303k      54379                  !presenceOf(copy_bus_parking:8_3)
                     304k      54373                  !presenceOf(copy_bus_parking:36_3)
                     305k      54367        F         !presenceOf(copy_bus_parking:4_3)
                     306k      54385        F          presenceOf(copy_bus_parking:6_4)
                     307k      54373        F         !presenceOf(copy_bus_parking:4_3)
                     308k      54373                  !presenceOf(copy_bus_parking:8_3)
                     309k      54367                  !presenceOf(copy_bus_parking:24_4)
                     310k      54543        F         !presenceOf(copy_bus_parking:4_3)
                     311k      54391        F          presenceOf(copy_bus_parking:5_4)
                     312k      54385        F          presenceOf(copy_bus_parking:24_4)
                     313k      54379                  !presenceOf(copy_bus_parking:36_3)
                     314k      54373        F         !presenceOf(copy_bus_parking:4_3)
                     315k      54373                  !presenceOf(copy_bus_parking:8_3)
                     316k      54379                  !presenceOf(copy_bus_parking:8_3)
                     317k      54379                  !presenceOf(copy_bus_parking:36_3)
                     318k      54373                   presenceOf(copy_bus_parking:33_4)
                     319k      54379                   presenceOf(copy_bus_parking:25_4)
                     320k      54379                  !presenceOf(copy_bus_parking:8_3)
 ! Time = 578.39s, Average fail depth = 464, Memory usage = 1.7 GB
 !               Branches  Non-fixed            Branch decision
                     321k      54373                   presenceOf(copy_bus_parking:16_4)
                     322k      54379                  !presenceOf(copy_bus_parking:8_3)
                     323k      54379        F          presenceOf(copy_bus_parking:5_4)
                     324k      54373        F         !presenceOf(copy_bus_parking:4_3)
                     325k      54379        F          presenceOf(copy_bus_parking:5_4)
                     326k      54379        F         !presenceOf(copy_bus_parking:4_3)
                     327k      54379                  !presenceOf(copy_bus_parking:8_3)
                     328k      54373        F         !presenceOf(copy_bus_parking:4_3)
                     329k      54380                   presenceOf(copy_lane_parking:3_243)
                     330k      55030                  !presenceOf(copy_trips:13_3)
                     331k      55028                  !presenceOf(copy_trips:47_3)
                     332k      55030                   presenceOf(copy_bus_parking:8_4)
                     333k      43689                  !presenceOf(copy_trips:0_60)
                     334k      43645        F         !presenceOf(copy_trips:32_68)
                     335k      51245                  !presenceOf(copy_bus_parking:1_0)
                     336k      55702                  !presenceOf(copy_bus_parking:5_0)
                     337k      55702                  !presenceOf(copy_bus_parking:9_0)
                     338k      55702                   presenceOf(copy_lane_parking:5_112)
                     339k      35904                   presenceOf(copy_trips:4_320)
                     340k      38602                   presenceOf(copy_trips:14_362)
 ! Time = 615.68s, Average fail depth = 459, Memory usage = 1.7 GB
 !               Branches  Non-fixed            Branch decision
                     341k      38587                   presenceOf(copy_trips:35_370)
                     342k      38584        F         !presenceOf(copy_trips:25_370)
                     343k      25124        F          presenceOf(copy_bus_parking:17_29)
                     344k      25228        F          presenceOf(copy_bus_parking:18_0)
                     345k      37325                  !presenceOf(copy_trips:47_51)
                     346k      43606                  !presenceOf(copy_bus_parking:4_60)
                     347k      41862                   presenceOf(copy_trips:14_14)
                     348k      42244                  !presenceOf(copy_trips:35_113)
                     349k      28667                  !presenceOf(copy_trips:5_204)
                     350k      18654            on charge:45_42
                     351k       5272                  !presenceOf(copy_trips:47_267)
                     352k       4082                  !presenceOf(copy_trips:43_30)
                     353k      38587                  !presenceOf(copy_trips:40_370)
                     354k      20555        F          presenceOf(copy_bus_parking:23_367)
                     355k      20398                   presenceOf(copy_lane_parking:2_55)
                     356k      38602                   presenceOf(copy_trips:39_219)
                     357k      20546        F          presenceOf(copy_bus_parking:7_275)
                     358k      20712                   presenceOf(copy_lane_parking:6_304)
                     359k      36829                   presenceOf(copy_lane_parking:7_35)
                     360k      36622            245  = endOf(start_parking:49)
 ! Time = 659.44s, Average fail depth = 459, Memory usage = 1.8 GB
 !               Branches  Non-fixed            Branch decision
                     361k      26263                  !presenceOf(copy_bus_parking:0_47)
                     362k      20211        F          presenceOf(copy_trips:36_370)
                     363k      20211        F          presenceOf(copy_trips:19_369)
                     364k      38596                  !presenceOf(copy_bus_parking:33_29)
                     365k      41241        F          presenceOf(copy_bus_parking:39_37)
                     366k      43684                  !presenceOf(copy_bus_parking:0_37)
                     367k      43684        F          presenceOf(copy_bus_parking:24_37)
                     368k      43684                  !presenceOf(copy_trips:42_1)
                     369k      38744        F          presenceOf(copy_bus_parking:41_370)
                     370k      38602                   presenceOf(copy_lane_parking:7_310)
                     371k      38602                  !presenceOf(copy_trips:49_57)
                     372k      40967        F          presenceOf(copy_trips:15_32)
                     373k      42217            610  = startOf(charge:7_57)
                     374k      44372        F          presenceOf(copy_trips:6_4)
                     375k      54716                   presenceOf(copy_lane_parking:4_38)
                     376k      40988                  !presenceOf(copy_bus_parking:42_9)
                     377k      41003                  !presenceOf(copy_trips:18_6)
                     378k      40988        F          presenceOf(copy_trips:12_6)
                     379k      20703        F          presenceOf(copy_trips:48_251)
                     380k      20703        F          presenceOf(copy_trips:31_251)
 ! Time = 698.00s, Average fail depth = 457, Memory usage = 1.8 GB
 !               Branches  Non-fixed            Branch decision
                     381k      20703        F          presenceOf(copy_trips:2_251)
                     382k      20703        F          presenceOf(copy_trips:49_251)
                     383k      20703        F          presenceOf(copy_bus_parking:18_369)
                     384k      38599                  !presenceOf(copy_trips:15_370)
                     385k      38599                  !presenceOf(copy_trips:21_10)
                     386k      51792        F          presenceOf(copy_trips:23_55)
                     387k      45433        F          presenceOf(copy_trips:9_93)
                     388k      35258        F          presenceOf(copy_trips:12_153)
                     389k      21642                  !presenceOf(copy_trips:37_243)
                     390k      10311                  !presenceOf(copy_trips:22_321)
                     391k       1304        F          presenceOf(copy_trips:49_21)
                     392k      41020                   presenceOf(copy_lane_parking:1_104)
                     393k      24076        F          presenceOf(copy_trips:27_152)
                     394k      14450                  !presenceOf(copy_trips:5_291)
                     395k        640                  !presenceOf(copy_trips:35_367)
 *                   395k  723.78s                   -
 ! ----------------------------------------------------------------------------
 ! Search completed, 1 solution found.
 ! ----------------------------------------------------------------------------
 ! Number of branches     : 395169
 ! Number of fails        : 157574
 ! Total memory usage     : 1.9 GB (1.9 GB CP Optimizer + 0.0 GB Concert)
 ! Time spent in solve    : 723.80s (717.20s engine + 6.60s extraction)
 ! Search speed (br. / s) : 551.0
 ! ----------------------------------------------------------------------------
